p cnf 390 680
17 19 38 51 52 0
17 19 38 51 -52 0
17 19 38 -51 52 0
17 19 38 -51 -52 0
19 -38 44 53 54 0
19 -38 44 53 -54 0
19 -38 44 -53 54 0
19 -38 44 -53 -54 0
15 -19 36 55 56 0
15 -19 36 55 -56 0
15 -19 36 -55 56 0
15 -19 36 -55 -56 0
15 -36 39 57 58 0
15 -36 39 57 -58 0
15 -36 39 -57 58 0
15 -36 39 -57 -58 0
11 -36 -39 59 60 0
11 -36 -39 59 -60 0
11 -36 -39 -59 60 0
11 -36 -39 -59 -60 0
-15 -19 44 61 62 0
-15 -19 44 61 -62 0
-15 -19 44 -61 62 0
-15 -19 44 -61 -62 0
1 17 23 63 64 0
1 17 23 63 -64 0
1 17 23 -63 64 0
1 17 23 -63 -64 0
-1 42 -44 65 66 0
-1 42 -44 65 -66 0
-1 42 -44 -65 66 0
-1 42 -44 -65 -66 0
23 -42 -44 67 68 0
23 -42 -44 67 -68 0
23 -42 -44 -67 68 0
23 -42 -44 -67 -68 0
11 17 -23 69 70 0
11 17 -23 69 -70 0
11 17 -23 -69 70 0
11 17 -23 -69 -70 0
11 -17 20 71 72 0
11 -17 20 71 -72 0
11 -17 20 -71 72 0
11 -17 20 -71 -72 0
-17 20 -28 73 74 0
-17 20 -28 73 -74 0
-17 20 -28 -73 74 0
-17 20 -28 -73 -74 0
14 -17 -20 75 76 0
14 -17 -20 75 -76 0
14 -17 -20 -75 76 0
14 -17 -20 -75 -76 0
7 -11 21 77 78 0
7 -11 21 77 -78 0
7 -11 21 -77 78 0
7 -11 21 -77 -78 0
-7 14 21 79 80 0
-7 14 21 79 -80 0
-7 14 21 -79 80 0
-7 14 21 -79 -80 0
-11 14 -21 81 82 0
-11 14 -21 81 -82 0
-11 14 -21 -81 82 0
-11 14 -21 -81 -82 0
-14 24 -31 83 84 0
-14 24 -31 83 -84 0
-14 24 -31 -83 84 0
-14 24 -31 -83 -84 0
-24 -31 42 85 86 0
-24 -31 42 85 -86 0
-24 -31 42 -85 86 0
-24 -31 42 -85 -86 0
-24 -31 -42 87 88 0
-24 -31 -42 87 -88 0
-24 -31 -42 -87 88 0
-24 -31 -42 -87 -88 0
31 33 45 89 90 0
31 33 45 89 -90 0
31 33 45 -89 90 0
31 33 45 -89 -90 0
-33 45 46 91 92 0
-33 45 46 91 -92 0
-33 45 46 -91 92 0
-33 45 46 -91 -92 0
31 -33 45 93 94 0
31 -33 45 93 -94 0
31 -33 45 -93 94 0
31 -33 45 -93 -94 0
-2 -45 47 95 96 0
-2 -45 47 95 -96 0
-2 -45 47 -95 96 0
-2 -45 47 -95 -96 0
-2 -14 28 97 98 0
-2 -14 28 97 -98 0
-2 -14 28 -97 98 0
-2 -14 28 -97 -98 0
-2 25 -47 99 100 0
-2 25 -47 99 -100 0
-2 25 -47 -99 100 0
-2 25 -47 -99 -100 0
-14 -25 -47 101 102 0
-14 -25 -47 101 -102 0
-14 -25 -47 -101 102 0
-14 -25 -47 -101 -102 0
31 -45 46 103 104 0
31 -45 46 103 -104 0
31 -45 46 -103 104 0
31 -45 46 -103 -104 0
17 -18 19 105 106 0
17 -18 19 105 -106 0
17 -18 19 -105 106 0
17 -18 19 -105 -106 0
-17 -18 30 107 108 0
-17 -18 30 107 -108 0
-17 -18 30 -107 108 0
-17 -18 30 -107 -108 0
-18 30 -45 109 110 0
-18 30 -45 109 -110 0
-18 30 -45 -109 110 0
-18 30 -45 -109 -110 0
-18 -30 -45 111 112 0
-18 -30 -45 111 -112 0
-18 -30 -45 -111 112 0
-18 -30 -45 -111 -112 0
1 -46 49 113 114 0
1 -46 49 113 -114 0
1 -46 49 -113 114 0
1 -46 49 -113 -114 0
1 -8 49 115 116 0
1 -8 49 115 -116 0
1 -8 49 -115 116 0
1 -8 49 -115 -116 0
36 -46 -49 117 118 0
36 -46 -49 117 -118 0
36 -46 -49 -117 118 0
36 -46 -49 -117 -118 0
13 -46 49 119 120 0
13 -46 49 119 -120 0
13 -46 49 -119 120 0
13 -46 49 -119 -120 0
9 13 -49 121 122 0
9 13 -49 121 -122 0
9 13 -49 -121 122 0
9 13 -49 -121 -122 0
9 -13 50 123 124 0
9 -13 50 123 -124 0
9 -13 50 -123 124 0
9 -13 50 -123 -124 0
-1 -46 -50 125 126 0
-1 -46 -50 125 -126 0
-1 -46 -50 -125 126 0
-1 -46 -50 -125 -126 0
9 26 -36 127 128 0
9 26 -36 127 -128 0
9 26 -36 -127 128 0
9 26 -36 -127 -128 0
2 9 -26 129 130 0
2 9 -26 129 -130 0
2 9 -26 -129 130 0
2 9 -26 -129 -130 0
-9 11 -45 131 132 0
-9 11 -45 131 -132 0
-9 11 -45 -131 132 0
-9 11 -45 -131 -132 0
2 18 34 133 134 0
2 18 34 133 -134 0
2 18 34 -133 134 0
2 18 34 -133 -134 0
18 -34 40 135 136 0
18 -34 40 135 -136 0
18 -34 40 -135 136 0
18 -34 40 -135 -136 0
-9 19 -34 137 138 0
-9 19 -34 137 -138 0
-9 19 -34 -137 138 0
-9 19 -34 -137 -138 0
-11 -22 -40 139 140 0
-11 -22 -40 139 -140 0
-11 -22 -40 -139 140 0
-11 -22 -40 -139 -140 0
4 16 43 141 142 0
4 16 43 141 -142 0
4 16 43 -141 142 0
4 16 43 -141 -142 0
10 35 -43 143 144 0
10 35 -43 143 -144 0
10 35 -43 -143 144 0
10 35 -43 -143 -144 0
-10 16 -43 145 146 0
-10 16 -43 145 -146 0
-10 16 -43 -145 146 0
-10 16 -43 -145 -146 0
-4 16 35 147 148 0
-4 16 35 147 -148 0
-4 16 35 -147 148 0
-4 16 35 -147 -148 0
-11 21 35 149 150 0
-11 21 35 149 -150 0
-11 21 35 -149 150 0
-11 21 35 -149 -150 0
-21 22 35 151 152 0
-21 22 35 151 -152 0
-21 22 35 -151 152 0
-21 22 35 -151 -152 0
22 40 46 153 154 0
22 40 46 153 -154 0
22 40 46 -153 154 0
22 40 46 -153 -154 0
22 36 -46 155 156 0
22 36 -46 155 -156 0
22 36 -46 -155 156 0
22 36 -46 -155 -156 0
-35 36 -40 157 158 0
-35 36 -40 157 -158 0
-35 36 -40 -157 158 0
-35 36 -40 -157 -158 0
-19 28 50 159 160 0
-19 28 50 159 -160 0
-19 28 50 -159 160 0
-19 28 50 -159 -160 0
2 -28 42 161 162 0
2 -28 42 161 -162 0
2 -28 42 -161 162 0
2 -28 42 -161 -162 0
2 -19 -42 163 164 0
2 -19 -42 163 -164 0
2 -19 -42 -163 164 0
2 -19 -42 -163 -164 0
-2 -40 50 165 166 0
-2 -40 50 165 -166 0
-2 -40 50 -165 166 0
-2 -40 50 -165 -166 0
-19 26 -50 167 168 0
-19 26 -50 167 -168 0
-19 26 -50 -167 168 0
-19 26 -50 -167 -168 0
6 22 39 169 170 0
6 22 39 169 -170 0
6 22 39 -169 170 0
6 22 39 -169 -170 0
-6 28 39 171 172 0
-6 28 39 171 -172 0
-6 28 39 -171 172 0
-6 28 39 -171 -172 0
3 5 39 173 174 0
3 5 39 173 -174 0
3 5 39 -173 174 0
3 5 39 -173 -174 0
-3 5 36 175 176 0
-3 5 36 175 -176 0
-3 5 36 -175 176 0
-3 5 36 -175 -176 0
-3 12 -36 177 178 0
-3 12 -36 177 -178 0
-3 12 -36 -177 178 0
-3 12 -36 -177 -178 0
-3 -12 -35 179 180 0
-3 -12 -35 179 -180 0
-3 -12 -35 -179 180 0
-3 -12 -35 -179 -180 0
-5 -28 29 181 182 0
-5 -28 29 181 -182 0
-5 -28 29 -181 182 0
-5 -28 29 -181 -182 0
-5 22 -29 183 184 0
-5 22 -29 183 -184 0
-5 22 -29 -183 184 0
-5 22 -29 -183 -184 0
-5 -22 -35 185 186 0
-5 -22 -35 185 -186 0
-5 -22 -35 -185 186 0
-5 -22 -35 -185 -186 0
-36 49 -50 187 188 0
-36 49 -50 187 -188 0
-36 49 -50 -187 188 0
-36 49 -50 -187 -188 0
-10 -39 -49 189 190 0
-10 -39 -49 189 -190 0
-10 -39 -49 -189 190 0
-10 -39 -49 -189 -190 0
-24 -26 27 191 192 0
-24 -26 27 191 -192 0
-24 -26 27 -191 192 0
-24 -26 27 -191 -192 0
10 -24 -26 193 194 0
10 -24 -26 193 -194 0
10 -24 -26 -193 194 0
10 -24 -26 -193 -194 0
14 -28 -39 195 196 0
14 -28 -39 195 -196 0
14 -28 -39 -195 196 0
14 -28 -39 -195 -196 0
24 -28 -39 197 198 0
24 -28 -39 197 -198 0
24 -28 -39 -197 198 0
24 -28 -39 -197 -198 0
7 24 38 199 200 0
7 24 38 199 -200 0
7 24 38 -199 200 0
7 24 38 -199 -200 0
24 38 -49 201 202 0
24 38 -49 201 -202 0
24 38 -49 -201 202 0
24 38 -49 -201 -202 0
6 15 37 203 204 0
6 15 37 203 -204 0
6 15 37 -203 204 0
6 15 37 -203 -204 0
23 33 37 205 206 0
23 33 37 205 -206 0
23 33 37 -205 206 0
23 33 37 -205 -206 0
15 -23 33 207 208 0
15 -23 33 207 -208 0
15 -23 33 -207 208 0
15 -23 33 -207 -208 0
24 -33 37 209 210 0
24 -33 37 209 -210 0
24 -33 37 -209 210 0
24 -33 37 -209 -210 0
10 15 -37 211 212 0
10 15 -37 211 -212 0
10 15 -37 -211 212 0
10 15 -37 -211 -212 0
10 -37 -39 213 214 0
10 -37 -39 213 -214 0
10 -37 -39 -213 214 0
10 -37 -39 -213 -214 0
-1 10 -37 215 216 0
-1 10 -37 215 -216 0
-1 10 -37 -215 216 0
-1 10 -37 -215 -216 0
-15 20 28 217 218 0
-15 20 28 217 -218 0
-15 20 28 -217 218 0
-15 20 28 -217 -218 0
-15 -20 41 219 220 0
-15 -20 41 219 -220 0
-15 -20 41 -219 220 0
-15 -20 41 -219 -220 0
-12 -20 49 221 222 0
-12 -20 49 221 -222 0
-12 -20 49 -221 222 0
-12 -20 49 -221 -222 0
-15 23 41 223 224 0
-15 23 41 223 -224 0
-15 23 41 -223 224 0
-15 23 41 -223 -224 0
-23 41 -49 225 226 0
-23 41 -49 225 -226 0
-23 41 -49 -225 226 0
-23 41 -49 -225 -226 0
10 -17 -38 227 228 0
10 -17 -38 227 -228 0
10 -17 -38 -227 228 0
10 -17 -38 -227 -228 0
-41 -47 48 229 230 0
-41 -47 48 229 -230 0
-41 -47 48 -229 230 0
-41 -47 48 -229 -230 0
-41 -47 -48 231 232 0
-41 -47 -48 231 -232 0
-41 -47 -48 -231 232 0
-41 -47 -48 -231 -232 0
28 -44 -47 233 234 0
28 -44 -47 233 -234 0
28 -44 -47 -233 234 0
28 -44 -47 -233 -234 0
-15 -33 -38 235 236 0
-15 -33 -38 235 -236 0
-15 -33 -38 -235 236 0
-15 -33 -38 -235 -236 0
6 14 30 237 238 0
6 14 30 237 -238 0
6 14 30 -237 238 0
6 14 30 -237 -238 0
6 -14 30 239 240 0
6 -14 30 239 -240 0
6 -14 30 -239 240 0
6 -14 30 -239 -240 0
-30 -37 -41 241 242 0
-30 -37 -41 241 -242 0
-30 -37 -41 -241 242 0
-30 -37 -41 -241 -242 0
-6 -37 47 243 244 0
-6 -37 47 243 -244 0
-6 -37 47 -243 244 0
-6 -37 47 -243 -244 0
17 23 33 245 246 0
17 23 33 245 -246 0
17 23 33 -245 246 0
17 23 33 -245 -246 0
14 -27 35 247 248 0
14 -27 35 247 -248 0
14 -27 35 -247 248 0
14 -27 35 -247 -248 0
-14 -27 31 249 250 0
-14 -27 31 249 -250 0
-14 -27 31 -249 250 0
-14 -27 31 -249 -250 0
-27 -35 40 251 252 0
-27 -35 40 251 -252 0
-27 -35 40 -251 252 0
-27 -35 40 -251 -252 0
-35 -40 50 253 254 0
-35 -40 50 253 -254 0
-35 -40 50 -253 254 0
-35 -40 50 -253 -254 0
-27 31 -50 255 256 0
-27 31 -50 255 -256 0
-27 31 -50 -255 256 0
-27 31 -50 -255 -256 0
7 -31 47 257 258 0
7 -31 47 257 -258 0
7 -31 47 -257 258 0
7 -31 47 -257 -258 0
4 7 -48 259 260 0
4 7 -48 259 -260 0
4 7 -48 -259 260 0
4 7 -48 -259 -260 0
-4 7 37 261 262 0
-4 7 37 261 -262 0
-4 7 37 -261 262 0
-4 7 37 -261 -262 0
-7 -31 47 263 264 0
-7 -31 47 263 -264 0
-7 -31 47 -263 264 0
-7 -31 47 -263 -264 0
33 -42 47 265 266 0
33 -42 47 265 -266 0
33 -42 47 -265 266 0
33 -42 47 -265 -266 0
-23 -42 -47 267 268 0
-23 -42 -47 267 -268 0
-23 -42 -47 -267 268 0
-23 -42 -47 -267 -268 0
-5 42 50 269 270 0
-5 42 50 269 -270 0
-5 42 50 -269 270 0
-5 42 50 -269 -270 0
-5 -23 -50 271 272 0
-5 -23 -50 271 -272 0
-5 -23 -50 -271 272 0
-5 -23 -50 -271 -272 0
-13 37 42 273 274 0
-13 37 42 273 -274 0
-13 37 42 -273 274 0
-13 37 42 -273 -274 0
13 27 48 275 276 0
13 27 48 275 -276 0
13 27 48 -275 276 0
13 27 48 -275 -276 0
13 -25 48 277 278 0
13 -25 48 277 -278 0
13 -25 48 -277 278 0
13 -25 48 -277 -278 0
5 8 20 279 280 0
5 8 20 279 -280 0
5 8 20 -279 280 0
5 8 20 -279 -280 0
8 11 32 281 282 0
8 11 32 281 -282 0
8 11 32 -281 282 0
8 11 32 -281 -282 0
8 -11 16 283 284 0
8 -11 16 283 -284 0
8 -11 16 -283 284 0
8 -11 16 -283 -284 0
8 -16 32 285 286 0
8 -16 32 285 -286 0
8 -16 32 -285 286 0
8 -16 32 -285 -286 0
5 8 -32 287 288 0
5 8 -32 287 -288 0
5 8 -32 -287 288 0
5 8 -32 -287 -288 0
5 26 29 289 290 0
5 26 29 289 -290 0
5 26 29 -289 290 0
5 26 29 -289 -290 0
-26 29 38 291 292 0
-26 29 38 291 -292 0
-26 29 38 -291 292 0
-26 29 38 -291 -292 0
29 34 -38 293 294 0
29 34 -38 293 -294 0
29 34 -38 -293 294 0
29 34 -38 -293 -294 0
29 -34 -48 295 296 0
29 -34 -48 295 -296 0
29 -34 -48 -295 296 0
29 -34 -48 -295 -296 0
-12 -29 -48 297 298 0
-12 -29 -48 297 -298 0
-12 -29 -48 -297 298 0
-12 -29 -48 -297 -298 0
-29 34 39 299 300 0
-29 34 39 299 -300 0
-29 34 39 -299 300 0
-29 34 39 -299 -300 0
-29 34 44 301 302 0
-29 34 44 301 -302 0
-29 34 44 -301 302 0
-29 34 44 -301 -302 0
12 -29 44 303 304 0
12 -29 44 303 -304 0
12 -29 44 -303 304 0
12 -29 44 -303 -304 0
2 -8 30 305 306 0
2 -8 30 305 -306 0
2 -8 30 -305 306 0
2 -8 30 -305 -306 0
-2 -8 -44 307 308 0
-2 -8 -44 307 -308 0
-2 -8 -44 -307 308 0
-2 -8 -44 -307 -308 0
12 -25 48 309 310 0
12 -25 48 309 -310 0
12 -25 48 -309 310 0
12 -25 48 -309 -310 0
12 -30 48 311 312 0
12 -30 48 311 -312 0
12 -30 48 -311 312 0
12 -30 48 -311 -312 0
-25 27 -44 313 314 0
-25 27 -44 313 -314 0
-25 27 -44 -313 314 0
-25 27 -44 -313 -314 0
12 -25 -48 315 316 0
12 -25 -48 315 -316 0
12 -25 -48 -315 316 0
12 -25 -48 -315 -316 0
25 -30 -43 317 318 0
25 -30 -43 317 -318 0
25 -30 -43 -317 318 0
25 -30 -43 -317 -318 0
-1 9 12 319 320 0
-1 9 12 319 -320 0
-1 9 12 -319 320 0
-1 9 12 -319 -320 0
-1 -9 -30 321 322 0
-1 -9 -30 321 -322 0
-1 -9 -30 -321 322 0
-1 -9 -30 -321 -322 0
-4 41 43 323 324 0
-4 41 43 323 -324 0
-4 41 43 -323 324 0
-4 41 43 -323 -324 0
-4 -41 43 325 326 0
-4 -41 43 325 -326 0
-4 -41 43 -325 326 0
-4 -41 43 -325 -326 0
-4 -12 -41 327 328 0
-4 -12 -41 327 -328 0
-4 -12 -41 -327 328 0
-4 -12 -41 -327 -328 0
4 25 44 329 330 0
4 25 44 329 -330 0
4 25 44 -329 330 0
4 25 44 -329 -330 0
4 7 25 331 332 0
4 7 25 331 -332 0
4 7 25 -331 332 0
4 7 25 -331 -332 0
1 6 32 333 334 0
1 6 32 333 -334 0
1 6 32 -333 334 0
1 6 32 -333 -334 0
-7 13 32 335 336 0
-7 13 32 335 -336 0
-7 13 32 -335 336 0
-7 13 32 -335 -336 0
-6 -7 -13 337 338 0
-6 -7 -13 337 -338 0
-6 -7 -13 -337 338 0
-6 -7 -13 -337 -338 0
1 -6 32 339 340 0
1 -6 32 339 -340 0
1 -6 32 -339 340 0
1 -6 32 -339 -340 0
-7 38 43 341 342 0
-7 38 43 341 -342 0
-7 38 43 -341 342 0
-7 38 43 -341 -342 0
16 -38 43 343 344 0
16 -38 43 343 -344 0
16 -38 43 -343 344 0
16 -38 43 -343 -344 0
-16 20 -32 345 346 0
-16 20 -32 345 -346 0
-16 20 -32 -345 346 0
-16 20 -32 -345 -346 0
-20 21 27 347 348 0
-20 21 27 347 -348 0
-20 21 27 -347 348 0
-20 21 27 -347 -348 0
21 27 -47 349 350 0
21 27 -47 349 -350 0
21 27 -47 -349 350 0
21 27 -47 -349 -350 0
-16 18 34 351 352 0
-16 18 34 351 -352 0
-16 18 34 -351 352 0
-16 18 34 -351 -352 0
-16 18 -27 353 354 0
-16 18 -27 353 -354 0
-16 18 -27 -353 354 0
-16 18 -27 -353 -354 0
-16 -18 -20 355 356 0
-16 -18 -20 355 -356 0
-16 -18 -20 -355 356 0
-16 -18 -20 -355 -356 0
-3 4 -21 357 358 0
-3 4 -21 357 -358 0
-3 4 -21 -357 358 0
-3 4 -21 -357 -358 0
-3 4 -40 359 360 0
-3 4 -40 359 -360 0
-3 4 -40 -359 360 0
-3 4 -40 -359 -360 0
3 -6 -21 361 362 0
3 -6 -21 361 -362 0
3 -6 -21 -361 362 0
3 -6 -21 -361 -362 0
-32 41 45 363 364 0
-32 41 45 363 -364 0
-32 41 45 -363 364 0
-32 41 45 -363 -364 0
-8 -34 46 365 366 0
-8 -34 46 365 -366 0
-8 -34 46 -365 366 0
-8 -34 46 -365 -366 0
-8 -9 26 367 368 0
-8 -9 26 367 -368 0
-8 -9 26 -367 368 0
-8 -9 26 -367 -368 0
-32 -34 40 369 370 0
-32 -34 40 369 -370 0
-32 -34 40 -369 370 0
-32 -34 40 -369 -370 0
-13 25 26 371 372 0
-13 25 26 371 -372 0
-13 25 26 -371 372 0
-13 25 26 -371 -372 0
-10 18 -43 373 374 0
-10 18 -43 373 -374 0
-10 18 -43 -373 374 0
-10 18 -43 -373 -374 0
-10 19 -26 375 376 0
-10 19 -26 375 -376 0
-10 19 -26 -375 376 0
-10 19 -26 -375 -376 0
-12 -24 -30 377 378 0
-12 -24 -30 377 -378 0
-12 -24 -30 -377 378 0
-12 -24 -30 -377 -378 0
-22 26 40 379 380 0
-22 26 40 379 -380 0
-22 26 40 -379 380 0
-22 26 40 -379 -380 0
-9 -32 46 381 382 0
-9 -32 46 381 -382 0
-9 -32 46 -381 382 0
-9 -32 46 -381 -382 0
-21 -22 -43 383 384 0
-21 -22 -43 383 -384 0
-21 -22 -43 -383 384 0
-21 -22 -43 -383 -384 0
3 -13 45 385 386 0
3 -13 45 385 -386 0
3 -13 45 -385 386 0
3 -13 45 -385 -386 0
3 -10 -22 387 388 0
3 -10 -22 387 -388 0
3 -10 -22 -387 388 0
3 -10 -22 -387 -388 0
3 -33 45 389 390 0
3 -33 45 389 -390 0
3 -33 45 -389 390 0
3 -33 45 -389 -390 0
